c FILE: i160-031

c SOURCE: From steinlib

c DESCRIPTION: Steinlib instance with 160 nodes and 320 edges.

p edge 160 320
e 1 5
e 1 25
e 1 27
e 1 64
e 1 80
e 1 98
e 1 99
e 1 150
e 2 38
e 2 151
e 3 36
e 4 94
e 4 158
e 5 30
e 5 81
e 5 157
e 5 160
e 6 13
e 6 40
e 6 68
e 6 152
e 7 9
e 7 12
e 7 47
e 7 81
e 7 87
e 7 149
e 8 34
e 8 38
e 8 83
e 9 41
e 9 103
e 9 141
e 9 158
e 10 50
e 10 105
e 11 14
e 11 25
e 11 68
e 11 86
e 11 93
e 11 97
e 11 98
e 11 135
e 12 16
e 12 134
e 13 14
e 13 37
e 13 48
e 14 38
e 14 79
e 14 86
e 14 133
e 14 136
e 15 40
e 15 51
e 15 144
e 16 80
e 16 143
e 17 93
e 17 102
e 17 122
e 18 43
e 18 79
e 19 25
e 19 151
e 20 23
e 20 84
e 20 97
e 21 43
e 21 51
e 21 70
e 21 87
e 22 38
e 22 41
e 22 67
e 22 128
e 22 138
e 22 144
e 23 160
e 24 72
e 24 121
e 24 128
e 24 152
e 25 34
e 25 53
e 25 80
e 25 109
e 25 137
e 26 33
e 26 34
e 26 77
e 27 159
e 28 31
e 29 40
e 29 59
e 29 69
e 29 86
e 29 122
e 29 139
e 30 116
e 30 119
e 30 155
e 31 36
e 31 93
e 31 112
e 31 147
e 32 90
e 32 95
e 32 98
e 32 134
e 33 54
e 33 88
e 33 96
e 34 63
e 34 82
e 34 85
e 35 58
e 35 101
e 35 129
e 35 137
e 35 151
e 36 47
e 36 53
e 36 72
e 36 79
e 37 104
e 38 112
e 38 117
e 38 158
e 39 44
e 39 73
e 39 131
e 39 140
e 41 44
e 41 118
e 42 81
e 42 82
e 42 124
e 43 48
e 43 64
e 43 80
e 44 58
e 44 89
e 44 106
e 44 132
e 45 80
e 45 131
e 46 73
e 46 144
e 47 96
e 47 116
e 47 125
e 47 131
e 47 147
e 48 89
e 49 122
e 49 140
e 50 120
e 50 145
e 51 82
e 52 73
e 52 135
e 53 59
e 53 97
e 53 131
e 54 68
e 54 85
e 54 91
e 54 104
e 54 136
e 54 143
e 54 159
e 55 57
e 55 59
e 55 67
e 56 122
e 56 140
e 56 159
e 57 87
e 57 111
e 58 62
e 58 69
e 58 98
e 58 126
e 59 157
e 60 113
e 60 143
e 60 148
e 60 158
e 61 81
e 61 98
e 61 107
e 62 64
e 62 93
e 62 132
e 63 89
e 63 105
e 63 117
e 64 72
e 64 78
e 64 84
e 64 110
e 64 139
e 65 98
e 66 82
e 66 122
e 66 135
e 67 112
e 67 157
e 68 113
e 68 115
e 68 135
e 69 117
e 70 94
e 70 98
e 70 108
e 70 145
e 71 129
e 72 75
e 72 96
e 72 120
e 73 115
e 73 128
e 74 82
e 74 113
e 74 130
e 75 104
e 75 155
e 76 98
e 76 111
e 76 153
e 77 81
e 77 105
e 77 124
e 77 134
e 78 111
e 78 136
e 78 140
e 79 103
e 81 137
e 82 110
e 82 159
e 83 110
e 84 129
e 84 148
e 84 149
e 85 87
e 85 120
e 86 146
e 86 160
e 87 91
e 87 116
e 87 158
e 88 137
e 89 128
e 89 133
e 90 98
e 90 116
e 91 97
e 92 116
e 92 148
e 94 100
e 94 119
e 94 128
e 95 113
e 95 118
e 96 105
e 97 156
e 98 110
e 98 114
e 98 145
e 100 154
e 101 126
e 101 136
e 103 110
e 103 121
e 104 111
e 106 147
e 107 112
e 107 127
e 107 150
e 108 128
e 110 122
e 112 117
e 112 127
e 112 145
e 112 155
e 113 156
e 115 133
e 115 146
e 115 150
e 115 156
e 116 134
e 117 127
e 117 147
e 118 121
e 118 123
e 120 126
e 120 133
e 120 157
e 122 137
e 123 146
e 123 152
e 123 153
e 125 158
e 127 145
e 128 142
e 129 135
e 130 150
e 131 146
e 132 158
e 133 143
e 133 154
e 140 143
e 143 158
e 145 150
e 146 160
e 156 158
e 157 158
